17	4	3
16	16	15	14	17	17	30	
0	0	0	0	0	7	3	3	7	5	1	3	2	3	4
4	6	9	9	5	9	4	3	1	7	8	1	13
6	5	6	2	3	7	9	1	7	7	4	2	8	17
1	2	3	3	2	4	9	3	1	5	4	2	5	9
9	2	10	4	5	2	10	2	8	1	5	2	6	17
25	4	9	4	8	3	8	7	5	4	2	3	7	10	15
225	10	9	3	3	6	3	5	9	4	2	2	13	16
50	2	4	4	5	6	10	10	7	6	7	1	9
100	5	4	4	6	10	10	6	2	1	10	2	14	17
50	8	7	10	7	5	3	10	7	10	1	2	11	13
50	9	7	1	9	1	2	8	7	7	2	2	12	17
100	4	2	10	1	9	2	5	3	1	8	2	14	17
7	1	8	6	5	5	6	8	5	2	3	1	17
9	8	9	4	7	2	2	3	7	3	3	2	16	17
2	7	9	4	6	7	8	5	7	5	5	1	17
2	5	6	5	8	7	5	6	4	2	2	1	17
0	0	0	0	0	6	10	4	10	3	4	0
